p cnf 962 2469
51 -695 -696 0
-51 695 0
-51 696 0
52 -51 -3 0
-52 51 0
-52 3 0
53 -5 -697 0
-53 5 0
-53 697 0
54 -53 -698 0
-54 53 0
-54 698 0
55 -699 -700 0
-55 699 0
-55 700 0
56 -8 -701 0
-56 8 0
-56 701 0
57 -56 -9 0
-57 56 0
-57 9 0
58 -702 -55 0
-58 702 0
-58 55 0
59 -11 -703 0
-59 11 0
-59 703 0
60 -59 -704 0
-60 59 0
-60 704 0
61 -705 -58 0
-61 705 0
-61 58 0
62 -706 -707 0
-62 706 0
-62 707 0
63 -62 -15 0
-63 62 0
-63 15 0
64 -708 -61 0
-64 708 0
-64 61 0
65 -16 -10 0
-65 16 0
-65 10 0
66 -65 -17 0
-66 65 0
-66 17 0
67 -709 -64 0
-67 709 0
-67 64 0
68 -19 -710 0
-68 19 0
-68 710 0
69 -68 -9 0
-69 68 0
-69 9 0
70 -711 -67 0
-70 711 0
-70 67 0
71 -20 -10 0
-71 20 0
-71 10 0
72 -71 -21 0
-72 71 0
-72 21 0
73 -712 -70 0
-73 712 0
-73 70 0
74 -23 -713 0
-74 23 0
-74 713 0
75 -74 -16 0
-75 74 0
-75 16 0
76 -714 -73 0
-76 714 0
-76 73 0
77 -701 -1 0
-77 701 0
-77 1 0
78 -77 -707 0
-78 77 0
-78 707 0
79 -715 -76 0
-79 715 0
-79 76 0
80 -716 -22 0
-80 716 0
-80 22 0
81 -80 -25 0
-81 80 0
-81 25 0
82 -717 -79 0
-82 717 0
-82 79 0
83 -26 -23 0
-83 26 0
-83 23 0
84 -83 -718 0
-84 83 0
-84 718 0
85 -719 -82 0
-85 719 0
-85 82 0
86 -28 -14 0
-86 28 0
-86 14 0
87 -86 -15 0
-87 86 0
-87 15 0
88 -720 -85 0
-88 720 0
-88 85 0
89 -28 -721 0
-89 28 0
-89 721 0
90 -89 -706 0
-90 89 0
-90 706 0
91 -722 -88 0
-91 722 0
-91 88 0
92 -716 -723 0
-92 716 0
-92 723 0
93 -92 -695 0
-93 92 0
-93 695 0
94 -724 -91 0
-94 724 0
-94 91 0
95 -29 -1 0
-95 29 0
-95 1 0
96 -95 -725 0
-96 95 0
-96 725 0
97 -726 -94 0
-97 726 0
-97 94 0
98 -727 -7 0
-98 727 0
-98 7 0
99 -98 -6 0
-99 98 0
-99 6 0
100 -728 -97 0
-100 728 0
-100 97 0
101 -729 -17 0
-101 729 0
-101 17 0
102 -101 -33 0
-102 101 0
-102 33 0
103 -730 -100 0
-103 730 0
-103 100 0
104 -731 -24 0
-104 731 0
-104 24 0
105 -104 -732 0
-105 104 0
-105 732 0
106 -733 -103 0
-106 733 0
-106 103 0
107 -734 -19 0
-107 734 0
-107 19 0
108 -107 -704 0
-108 107 0
-108 704 0
109 -735 -106 0
-109 735 0
-109 106 0
110 -23 -18 0
-110 23 0
-110 18 0
111 -110 -17 0
-111 110 0
-111 17 0
112 -736 -109 0
-112 736 0
-112 109 0
113 -37 -36 0
-113 37 0
-113 36 0
114 -113 -3 0
-114 113 0
-114 3 0
115 -737 -112 0
-115 737 0
-115 112 0
116 -738 -10 0
-116 738 0
-116 10 0
117 -116 -14 0
-117 116 0
-117 14 0
118 -739 -115 0
-118 739 0
-118 115 0
119 -740 -1 0
-119 740 0
-119 1 0
120 -119 -741 0
-120 119 0
-120 741 0
121 -742 -118 0
-121 742 0
-121 118 0
122 -40 -743 0
-122 40 0
-122 743 0
123 -122 -707 0
-123 122 0
-123 707 0
124 -744 -121 0
-124 744 0
-124 121 0
125 -710 -703 0
-125 710 0
-125 703 0
126 -125 -15 0
-126 125 0
-126 15 0
127 -745 -124 0
-127 745 0
-127 124 0
128 -28 -746 0
-128 28 0
-128 746 0
129 -128 -11 0
-129 128 0
-129 11 0
130 -747 -127 0
-130 747 0
-130 127 0
131 -25 -748 0
-131 25 0
-131 748 0
132 -131 -6 0
-132 131 0
-132 6 0
133 -749 -130 0
-133 749 0
-133 130 0
134 -9 -2 0
-134 9 0
-134 2 0
135 -134 -14 0
-135 134 0
-135 14 0
136 -750 -133 0
-136 750 0
-136 133 0
137 -751 -22 0
-137 751 0
-137 22 0
138 -137 -41 0
-138 137 0
-138 41 0
139 -752 -136 0
-139 752 0
-139 136 0
140 -24 -22 0
-140 24 0
-140 22 0
141 -140 -18 0
-141 140 0
-141 18 0
142 -753 -139 0
-142 753 0
-142 139 0
143 -42 -707 0
-143 42 0
-143 707 0
144 -143 -754 0
-144 143 0
-144 754 0
145 -755 -142 0
-145 755 0
-145 142 0
146 -743 -27 0
-146 743 0
-146 27 0
147 -146 -13 0
-147 146 0
-147 13 0
148 -756 -145 0
-148 756 0
-148 145 0
149 -757 -710 0
-149 757 0
-149 710 0
150 -149 -12 0
-150 149 0
-150 12 0
151 -758 -148 0
-151 758 0
-151 148 0
152 -34 -759 0
-152 34 0
-152 759 0
153 -152 -15 0
-153 152 0
-153 15 0
154 -760 -151 0
-154 760 0
-154 151 0
155 -751 -729 0
-155 751 0
-155 729 0
156 -155 -761 0
-156 155 0
-156 761 0
157 -762 -154 0
-157 762 0
-157 154 0
158 -763 -5 0
-158 763 0
-158 5 0
159 -158 -754 0
-159 158 0
-159 754 0
160 -764 -157 0
-160 764 0
-160 157 0
161 -27 -10 0
-161 27 0
-161 10 0
162 -161 -706 0
-162 161 0
-162 706 0
163 -765 -160 0
-163 765 0
-163 160 0
164 -29 -22 0
-164 29 0
-164 22 0
165 -164 -766 0
-165 164 0
-165 766 0
166 -767 -163 0
-166 767 0
-166 163 0
167 -35 -718 0
-167 35 0
-167 718 0
168 -167 -706 0
-168 167 0
-168 706 0
169 -768 -166 0
-169 768 0
-169 166 0
170 -29 -721 0
-170 29 0
-170 721 0
171 -170 -698 0
-171 170 0
-171 698 0
172 -769 -169 0
-172 769 0
-172 169 0
173 -104 -770 0
-173 104 0
-173 770 0
174 -771 -172 0
-174 771 0
-174 172 0
175 -738 -7 0
-175 738 0
-175 7 0
176 -175 -772 0
-176 175 0
-176 772 0
177 -773 -174 0
-177 773 0
-177 174 0
178 -743 -23 0
-178 743 0
-178 23 0
179 -178 -766 0
-179 178 0
-179 766 0
180 -774 -177 0
-180 774 0
-180 177 0
181 -44 -42 0
-181 44 0
-181 42 0
182 -181 -754 0
-182 181 0
-182 754 0
183 -775 -180 0
-183 775 0
-183 180 0
184 -772 -31 0
-184 772 0
-184 31 0
185 -184 -704 0
-185 184 0
-185 704 0
186 -776 -183 0
-186 776 0
-186 183 0
187 -777 -1 0
-187 777 0
-187 1 0
188 -187 -697 0
-188 187 0
-188 697 0
189 -778 -186 0
-189 778 0
-189 186 0
190 -33 -779 0
-190 33 0
-190 779 0
191 -190 -21 0
-191 190 0
-191 21 0
192 -780 -189 0
-192 780 0
-192 189 0
193 -146 -734 0
-193 146 0
-193 734 0
194 -781 -192 0
-194 781 0
-194 192 0
195 -703 -3 0
-195 703 0
-195 3 0
196 -195 -782 0
-196 195 0
-196 782 0
197 -783 -194 0
-197 783 0
-197 194 0
198 -46 -770 0
-198 46 0
-198 770 0
199 -198 -39 0
-199 198 0
-199 39 0
200 -784 -197 0
-200 784 0
-200 197 0
201 -770 -5 0
-201 770 0
-201 5 0
202 -201 -41 0
-202 201 0
-202 41 0
203 -785 -200 0
-203 785 0
-203 200 0
204 -743 -710 0
-204 743 0
-204 710 0
205 -204 -754 0
-205 204 0
-205 754 0
206 -786 -203 0
-206 786 0
-206 203 0
207 -713 -18 0
-207 713 0
-207 18 0
208 -207 -16 0
-208 207 0
-208 16 0
209 -787 -206 0
-209 787 0
-209 206 0
210 -42 -727 0
-210 42 0
-210 727 0
211 -210 -779 0
-211 210 0
-211 779 0
212 -788 -209 0
-212 788 0
-212 209 0
213 -727 -721 0
-213 727 0
-213 721 0
214 -213 -738 0
-214 213 0
-214 738 0
215 -789 -212 0
-215 789 0
-215 212 0
216 -28 -22 0
-216 28 0
-216 22 0
217 -216 -32 0
-217 216 0
-217 32 0
218 -790 -215 0
-218 790 0
-218 215 0
219 -47 -40 0
-219 47 0
-219 40 0
220 -219 -27 0
-220 219 0
-220 27 0
221 -791 -218 0
-221 791 0
-221 218 0
222 -772 -26 0
-222 772 0
-222 26 0
223 -222 -782 0
-223 222 0
-223 782 0
224 -792 -221 0
-224 792 0
-224 221 0
225 -48 -11 0
-225 48 0
-225 11 0
226 -225 -782 0
-226 225 0
-226 782 0
227 -793 -224 0
-227 793 0
-227 224 0
228 -794 -704 0
-228 794 0
-228 704 0
229 -228 -741 0
-229 228 0
-229 741 0
230 -795 -227 0
-230 795 0
-230 227 0
231 -44 -746 0
-231 44 0
-231 746 0
232 -231 -782 0
-232 231 0
-232 782 0
233 -796 -230 0
-233 796 0
-233 230 0
234 -32 -740 0
-234 32 0
-234 740 0
235 -234 -695 0
-235 234 0
-235 695 0
236 -797 -233 0
-236 797 0
-236 233 0
237 -748 -721 0
-237 748 0
-237 721 0
238 -237 -17 0
-238 237 0
-238 17 0
239 -798 -236 0
-239 798 0
-239 236 0
240 -718 -799 0
-240 718 0
-240 799 0
241 -240 -697 0
-241 240 0
-241 697 0
242 -800 -239 0
-242 800 0
-242 239 0
243 -46 -801 0
-243 46 0
-243 801 0
244 -243 -29 0
-244 243 0
-244 29 0
245 -802 -242 0
-245 802 0
-245 242 0
246 -801 -746 0
-246 801 0
-246 746 0
247 -246 -16 0
-247 246 0
-247 16 0
248 -803 -245 0
-248 803 0
-248 245 0
249 -38 -759 0
-249 38 0
-249 759 0
250 -249 -698 0
-250 249 0
-250 698 0
251 -804 -248 0
-251 804 0
-251 248 0
252 -19 -15 0
-252 19 0
-252 15 0
253 -252 -732 0
-253 252 0
-253 732 0
254 -805 -251 0
-254 805 0
-254 251 0
255 -748 -1 0
-255 748 0
-255 1 0
256 -255 -35 0
-256 255 0
-256 35 0
257 -806 -254 0
-257 806 0
-257 254 0
258 -20 -721 0
-258 20 0
-258 721 0
259 -258 -731 0
-259 258 0
-259 731 0
260 -807 -257 0
-260 807 0
-260 257 0
261 -766 -19 0
-261 766 0
-261 19 0
262 -261 -30 0
-262 261 0
-262 30 0
263 -808 -260 0
-263 808 0
-263 260 0
264 -748 -746 0
-264 748 0
-264 746 0
265 -264 -4 0
-265 264 0
-265 4 0
266 -809 -263 0
-266 809 0
-266 263 0
267 -49 -810 0
-267 49 0
-267 810 0
268 -267 -33 0
-268 267 0
-268 33 0
269 -811 -266 0
-269 811 0
-269 266 0
270 -8 -812 0
-270 8 0
-270 812 0
271 -270 -41 0
-271 270 0
-271 41 0
272 -813 -269 0
-272 813 0
-272 269 0
273 -46 -761 0
-273 46 0
-273 761 0
274 -273 -741 0
-274 273 0
-274 741 0
275 -814 -272 0
-275 814 0
-275 272 0
276 -47 -772 0
-276 47 0
-276 772 0
277 -276 -14 0
-277 276 0
-277 14 0
278 -815 -275 0
-278 815 0
-278 275 0
279 -799 -710 0
-279 799 0
-279 710 0
280 -279 -697 0
-280 279 0
-280 697 0
281 -816 -278 0
-281 816 0
-281 278 0
282 -817 -763 0
-282 817 0
-282 763 0
283 -282 -812 0
-283 282 0
-283 812 0
284 -818 -281 0
-284 818 0
-284 281 0
285 -819 -31 0
-285 819 0
-285 31 0
286 -285 -14 0
-286 285 0
-286 14 0
287 -820 -284 0
-287 820 0
-287 284 0
288 -40 -19 0
-288 40 0
-288 19 0
289 -288 -25 0
-289 288 0
-289 25 0
290 -821 -287 0
-290 821 0
-290 287 0
291 -19 -822 0
-291 19 0
-291 822 0
292 -291 -704 0
-292 291 0
-292 704 0
293 -823 -290 0
-293 823 0
-293 290 0
294 -799 -706 0
-294 799 0
-294 706 0
295 -294 -741 0
-295 294 0
-295 741 0
296 -824 -293 0
-296 824 0
-296 293 0
297 -27 -710 0
-297 27 0
-297 710 0
298 -297 -4 0
-298 297 0
-298 4 0
299 -825 -296 0
-299 825 0
-299 296 0
300 -801 -734 0
-300 801 0
-300 734 0
301 -300 -37 0
-301 300 0
-301 37 0
302 -826 -299 0
-302 826 0
-302 299 0
303 -751 -19 0
-303 751 0
-303 19 0
304 -303 -3 0
-304 303 0
-304 3 0
305 -827 -302 0
-305 827 0
-305 302 0
306 -713 -1 0
-306 713 0
-306 1 0
307 -306 -772 0
-307 306 0
-307 772 0
308 -828 -305 0
-308 828 0
-308 305 0
309 -751 -8 0
-309 751 0
-309 8 0
310 -309 -754 0
-310 309 0
-310 754 0
311 -829 -308 0
-311 829 0
-311 308 0
312 -41 -695 0
-312 41 0
-312 695 0
313 -312 -741 0
-313 312 0
-313 741 0
314 -830 -311 0
-314 830 0
-314 311 0
315 -44 -697 0
-315 44 0
-315 697 0
316 -315 -12 0
-316 315 0
-316 12 0
317 -831 -314 0
-317 831 0
-317 314 0
318 -819 -28 0
-318 819 0
-318 28 0
319 -318 -817 0
-319 318 0
-319 817 0
320 -832 -317 0
-320 832 0
-320 317 0
321 -817 -801 0
-321 817 0
-321 801 0
322 -321 -18 0
-322 321 0
-322 18 0
323 -833 -320 0
-323 833 0
-323 320 0
324 -766 -782 0
-324 766 0
-324 782 0
325 -324 -25 0
-325 324 0
-325 25 0
326 -834 -323 0
-326 834 0
-326 323 0
327 -47 -38 0
-327 47 0
-327 38 0
328 -327 -766 0
-328 327 0
-328 766 0
329 -835 -326 0
-329 835 0
-329 326 0
330 -766 -10 0
-330 766 0
-330 10 0
331 -330 -45 0
-331 330 0
-331 45 0
332 -836 -329 0
-332 836 0
-332 329 0
333 -837 -794 0
-333 837 0
-333 794 0
334 -333 -772 0
-334 333 0
-334 772 0
335 -838 -332 0
-335 838 0
-335 332 0
336 -725 -23 0
-336 725 0
-336 23 0
337 -336 -734 0
-337 336 0
-337 734 0
338 -839 -335 0
-338 839 0
-338 335 0
339 -763 -718 0
-339 763 0
-339 718 0
340 -339 -4 0
-340 339 0
-340 4 0
341 -840 -338 0
-341 840 0
-341 338 0
342 -751 -779 0
-342 751 0
-342 779 0
343 -342 -782 0
-343 342 0
-343 782 0
344 -841 -341 0
-344 841 0
-344 341 0
345 -842 -8 0
-345 842 0
-345 8 0
346 -345 -741 0
-346 345 0
-346 741 0
347 -843 -344 0
-347 843 0
-347 344 0
348 -32 -17 0
-348 32 0
-348 17 0
349 -348 -741 0
-349 348 0
-349 741 0
350 -844 -347 0
-350 844 0
-350 347 0
351 -28 -770 0
-351 28 0
-351 770 0
352 -351 -741 0
-352 351 0
-352 741 0
353 -845 -350 0
-353 845 0
-353 350 0
354 -8 -3 0
-354 8 0
-354 3 0
355 -354 -4 0
-355 354 0
-355 4 0
356 -846 -353 0
-356 846 0
-356 353 0
357 -810 -727 0
-357 810 0
-357 727 0
358 -357 -43 0
-358 357 0
-358 43 0
359 -847 -356 0
-359 847 0
-359 356 0
360 -716 -822 0
-360 716 0
-360 822 0
361 -360 -39 0
-361 360 0
-361 39 0
362 -848 -359 0
-362 848 0
-362 359 0
363 -38 -794 0
-363 38 0
-363 794 0
364 -363 -757 0
-364 363 0
-364 757 0
365 -849 -362 0
-365 849 0
-365 362 0
366 -17 -701 0
-366 17 0
-366 701 0
367 -366 -782 0
-367 366 0
-367 782 0
368 -850 -365 0
-368 850 0
-368 365 0
369 -801 -10 0
-369 801 0
-369 10 0
370 -369 -710 0
-370 369 0
-370 710 0
371 -851 -368 0
-371 851 0
-371 368 0
372 -48 -718 0
-372 48 0
-372 718 0
373 -372 -695 0
-373 372 0
-373 695 0
374 -852 -371 0
-374 852 0
-374 371 0
375 -757 -3 0
-375 757 0
-375 3 0
376 -375 -741 0
-376 375 0
-376 741 0
377 -853 -374 0
-377 853 0
-377 374 0
378 -772 -7 0
-378 772 0
-378 7 0
379 -378 -761 0
-379 378 0
-379 761 0
380 -854 -377 0
-380 854 0
-380 377 0
381 -28 -24 0
-381 28 0
-381 24 0
382 -381 -45 0
-382 381 0
-382 45 0
383 -855 -380 0
-383 855 0
-383 380 0
384 -799 -5 0
-384 799 0
-384 5 0
385 -384 -41 0
-385 384 0
-385 41 0
386 -856 -383 0
-386 856 0
-386 383 0
387 -28 -20 0
-387 28 0
-387 20 0
388 -387 -12 0
-388 387 0
-388 12 0
389 -857 -386 0
-389 857 0
-389 386 0
390 -47 -707 0
-390 47 0
-390 707 0
391 -390 -777 0
-391 390 0
-391 777 0
392 -858 -389 0
-392 858 0
-392 389 0
393 -721 -695 0
-393 721 0
-393 695 0
394 -393 -39 0
-394 393 0
-394 39 0
395 -859 -392 0
-395 859 0
-395 392 0
396 -36 -31 0
-396 36 0
-396 31 0
397 -396 -11 0
-397 396 0
-397 11 0
398 -860 -395 0
-398 860 0
-398 395 0
399 -32 -23 0
-399 32 0
-399 23 0
400 -399 -12 0
-400 399 0
-400 12 0
401 -861 -398 0
-401 861 0
-401 398 0
402 -810 -10 0
-402 810 0
-402 10 0
403 -402 -14 0
-403 402 0
-403 14 0
404 -862 -401 0
-404 862 0
-404 401 0
405 -42 -36 0
-405 42 0
-405 36 0
406 -405 -37 0
-406 405 0
-406 37 0
407 -863 -404 0
-407 863 0
-407 404 0
408 -19 -761 0
-408 19 0
-408 761 0
409 -408 -732 0
-409 408 0
-409 732 0
410 -864 -407 0
-410 864 0
-410 407 0
411 -45 -761 0
-411 45 0
-411 761 0
412 -411 -14 0
-412 411 0
-412 14 0
413 -865 -410 0
-413 865 0
-413 410 0
414 -34 -729 0
-414 34 0
-414 729 0
415 -414 -822 0
-415 414 0
-415 822 0
416 -866 -413 0
-416 866 0
-416 413 0
417 -817 -48 0
-417 817 0
-417 48 0
418 -417 -757 0
-418 417 0
-418 757 0
419 -867 -416 0
-419 867 0
-419 416 0
420 -44 -738 0
-420 44 0
-420 738 0
421 -420 -812 0
-421 420 0
-421 812 0
422 -868 -419 0
-422 868 0
-422 419 0
423 -748 -20 0
-423 748 0
-423 20 0
424 -423 -810 0
-424 423 0
-424 810 0
425 -869 -422 0
-425 869 0
-425 422 0
426 -870 -716 0
-426 870 0
-426 716 0
427 -426 -15 0
-427 426 0
-427 15 0
428 -871 -425 0
-428 871 0
-428 425 0
429 -36 -24 0
-429 36 0
-429 24 0
430 -429 -772 0
-430 429 0
-430 772 0
431 -872 -428 0
-431 872 0
-431 428 0
432 -731 -748 0
-432 731 0
-432 748 0
433 -432 -761 0
-433 432 0
-433 761 0
434 -873 -431 0
-434 873 0
-434 431 0
435 -799 -17 0
-435 799 0
-435 17 0
436 -435 -812 0
-436 435 0
-436 812 0
437 -874 -434 0
-437 874 0
-437 434 0
438 -27 -11 0
-438 27 0
-438 11 0
439 -438 -19 0
-439 438 0
-439 19 0
440 -875 -437 0
-440 875 0
-440 437 0
441 -727 -15 0
-441 727 0
-441 15 0
442 -441 -732 0
-442 441 0
-442 732 0
443 -876 -440 0
-443 876 0
-443 440 0
444 -801 -766 0
-444 801 0
-444 766 0
445 -444 -27 0
-445 444 0
-445 27 0
446 -877 -443 0
-446 877 0
-446 443 0
447 -870 -812 0
-447 870 0
-447 812 0
448 -447 -754 0
-448 447 0
-448 754 0
449 -878 -446 0
-449 878 0
-449 446 0
450 -36 -695 0
-450 36 0
-450 695 0
451 -450 -14 0
-451 450 0
-451 14 0
452 -879 -449 0
-452 879 0
-452 449 0
453 -26 -812 0
-453 26 0
-453 812 0
454 -453 -15 0
-454 453 0
-454 15 0
455 -880 -452 0
-455 880 0
-455 452 0
456 -842 -35 0
-456 842 0
-456 35 0
457 -456 -21 0
-457 456 0
-457 21 0
458 -881 -455 0
-458 881 0
-458 455 0
459 -26 -721 0
-459 26 0
-459 721 0
460 -459 -13 0
-460 459 0
-460 13 0
461 -882 -458 0
-461 882 0
-461 458 0
462 -729 -1 0
-462 729 0
-462 1 0
463 -462 -6 0
-463 462 0
-463 6 0
464 -883 -461 0
-464 883 0
-464 461 0
465 -50 -718 0
-465 50 0
-465 718 0
466 -465 -706 0
-466 465 0
-466 706 0
467 -884 -464 0
-467 884 0
-467 464 0
468 -734 -740 0
-468 734 0
-468 740 0
469 -468 -741 0
-469 468 0
-469 741 0
470 -885 -467 0
-470 885 0
-470 467 0
471 -801 -26 0
-471 801 0
-471 26 0
472 -471 -23 0
-472 471 0
-472 23 0
473 -886 -470 0
-473 886 0
-473 470 0
474 -50 -46 0
-474 50 0
-474 46 0
475 -474 -5 0
-475 474 0
-475 5 0
476 -887 -473 0
-476 887 0
-476 473 0
477 -45 -734 0
-477 45 0
-477 734 0
478 -477 -704 0
-478 477 0
-478 704 0
479 -888 -476 0
-479 888 0
-479 476 0
480 -817 -740 0
-480 817 0
-480 740 0
481 -480 -3 0
-481 480 0
-481 3 0
482 -889 -479 0
-482 889 0
-482 479 0
483 -273 -12 0
-483 273 0
-483 12 0
484 -890 -482 0
-484 890 0
-484 482 0
485 -842 -696 0
-485 842 0
-485 696 0
486 -485 -810 0
-486 485 0
-486 810 0
487 -891 -484 0
-487 891 0
-487 484 0
488 -748 -710 0
-488 748 0
-488 710 0
489 -488 -39 0
-489 488 0
-489 39 0
490 -892 -487 0
-490 892 0
-490 487 0
491 -50 -706 0
-491 50 0
-491 706 0
492 -491 -732 0
-492 491 0
-492 732 0
493 -893 -490 0
-493 893 0
-493 490 0
494 -716 -697 0
-494 716 0
-494 697 0
495 -494 -704 0
-495 494 0
-495 704 0
496 -894 -493 0
-496 894 0
-496 493 0
497 -870 -751 0
-497 870 0
-497 751 0
498 -497 -741 0
-498 497 0
-498 741 0
499 -895 -496 0
-499 895 0
-499 496 0
500 -746 -10 0
-500 746 0
-500 10 0
501 -500 -8 0
-501 500 0
-501 8 0
502 -896 -499 0
-502 896 0
-502 499 0
503 -794 -19 0
-503 794 0
-503 19 0
504 -503 -725 0
-504 503 0
-504 725 0
505 -897 -502 0
-505 897 0
-505 502 0
506 -38 -20 0
-506 38 0
-506 20 0
507 -506 -14 0
-507 506 0
-507 14 0
508 -898 -505 0
-508 898 0
-508 505 0
509 -31 -8 0
-509 31 0
-509 8 0
510 -509 -6 0
-510 509 0
-510 6 0
511 -899 -508 0
-511 899 0
-511 508 0
512 -37 -743 0
-512 37 0
-512 743 0
513 -512 -41 0
-513 512 0
-513 41 0
514 -900 -511 0
-514 900 0
-514 511 0
515 -27 -22 0
-515 27 0
-515 22 0
516 -515 -25 0
-516 515 0
-516 25 0
517 -901 -514 0
-517 901 0
-517 514 0
518 -757 -32 0
-518 757 0
-518 32 0
519 -518 -19 0
-519 518 0
-519 19 0
520 -902 -517 0
-520 902 0
-520 517 0
521 -26 -20 0
-521 26 0
-521 20 0
522 -521 -39 0
-522 521 0
-522 39 0
523 -903 -520 0
-523 903 0
-523 520 0
524 -43 -701 0
-524 43 0
-524 701 0
525 -524 -15 0
-525 524 0
-525 15 0
526 -904 -523 0
-526 904 0
-526 523 0
527 -48 -32 0
-527 48 0
-527 32 0
528 -527 -763 0
-528 527 0
-528 763 0
529 -905 -526 0
-529 905 0
-529 526 0
530 -751 -731 0
-530 751 0
-530 731 0
531 -530 -9 0
-531 530 0
-531 9 0
532 -906 -529 0
-532 906 0
-532 529 0
533 -757 -11 0
-533 757 0
-533 11 0
534 -533 -43 0
-534 533 0
-534 43 0
535 -907 -532 0
-535 907 0
-535 532 0
536 -18 -17 0
-536 18 0
-536 17 0
537 -536 -6 0
-537 536 0
-537 6 0
538 -908 -535 0
-538 908 0
-538 535 0
539 -746 -710 0
-539 746 0
-539 710 0
540 -539 -14 0
-540 539 0
-540 14 0
541 -909 -538 0
-541 909 0
-541 538 0
542 -29 -718 0
-542 29 0
-542 718 0
543 -542 -42 0
-543 542 0
-543 42 0
544 -910 -541 0
-544 910 0
-544 541 0
545 -731 -729 0
-545 731 0
-545 729 0
546 -545 -37 0
-546 545 0
-546 37 0
547 -911 -544 0
-547 911 0
-547 544 0
548 -819 -738 0
-548 819 0
-548 738 0
549 -548 -704 0
-549 548 0
-549 704 0
550 -912 -547 0
-550 912 0
-550 547 0
551 -46 -35 0
-551 46 0
-551 35 0
552 -551 -706 0
-552 551 0
-552 706 0
553 -913 -550 0
-553 913 0
-553 550 0
554 -725 -696 0
-554 725 0
-554 696 0
555 -554 -697 0
-555 554 0
-555 697 0
556 -914 -553 0
-556 914 0
-556 553 0
557 -734 -759 0
-557 734 0
-557 759 0
558 -557 -695 0
-558 557 0
-558 695 0
559 -915 -556 0
-559 915 0
-559 556 0
560 -777 -34 0
-560 777 0
-560 34 0
561 -560 -25 0
-561 560 0
-561 25 0
562 -916 -559 0
-562 916 0
-562 559 0
563 -801 -713 0
-563 801 0
-563 713 0
564 -563 -18 0
-564 563 0
-564 18 0
565 -917 -562 0
-565 917 0
-565 562 0
566 -387 -21 0
-566 387 0
-566 21 0
567 -918 -565 0
-567 918 0
-567 565 0
568 -727 -21 0
-568 727 0
-568 21 0
569 -568 -695 0
-569 568 0
-569 695 0
570 -919 -567 0
-570 919 0
-570 567 0
571 -28 -761 0
-571 28 0
-571 761 0
572 -571 -706 0
-572 571 0
-572 706 0
573 -920 -570 0
-573 920 0
-573 570 0
574 -396 -707 0
-574 396 0
-574 707 0
575 -921 -573 0
-575 921 0
-575 573 0
576 -48 -696 0
-576 48 0
-576 696 0
577 -576 -738 0
-577 576 0
-577 738 0
578 -922 -575 0
-578 922 0
-578 575 0
579 -27 -4 0
-579 27 0
-579 4 0
580 -579 -761 0
-580 579 0
-580 761 0
581 -923 -578 0
-581 923 0
-581 578 0
582 -20 -11 0
-582 20 0
-582 11 0
583 -582 -777 0
-583 582 0
-583 777 0
584 -924 -581 0
-584 924 0
-584 581 0
585 -46 -12 0
-585 46 0
-585 12 0
586 -585 -782 0
-586 585 0
-586 782 0
587 -925 -584 0
-587 925 0
-587 584 0
588 -45 -718 0
-588 45 0
-588 718 0
589 -588 -6 0
-589 588 0
-589 6 0
590 -926 -587 0
-590 926 0
-590 587 0
591 -14 -2 0
-591 14 0
-591 2 0
592 -591 -741 0
-592 591 0
-592 741 0
593 -927 -590 0
-593 927 0
-593 590 0
594 -18 -812 0
-594 18 0
-594 812 0
595 -594 -6 0
-595 594 0
-595 6 0
596 -928 -593 0
-596 928 0
-596 593 0
597 -716 -748 0
-597 716 0
-597 748 0
598 -597 -13 0
-598 597 0
-598 13 0
599 -929 -596 0
-599 929 0
-599 596 0
600 -748 -696 0
-600 748 0
-600 696 0
601 -600 -738 0
-601 600 0
-601 738 0
602 -930 -599 0
-602 930 0
-602 599 0
603 -50 -28 0
-603 50 0
-603 28 0
604 -603 -777 0
-604 603 0
-604 777 0
605 -931 -602 0
-605 931 0
-605 602 0
606 -751 -746 0
-606 751 0
-606 746 0
607 -606 -17 0
-607 606 0
-607 17 0
608 -932 -605 0
-608 932 0
-608 605 0
609 -28 -8 0
-609 28 0
-609 8 0
610 -609 -41 0
-610 609 0
-610 41 0
611 -933 -608 0
-611 933 0
-611 608 0
612 -369 -13 0
-612 369 0
-612 13 0
613 -934 -611 0
-613 934 0
-613 611 0
614 -48 -743 0
-614 48 0
-614 743 0
615 -614 -12 0
-615 614 0
-615 12 0
616 -935 -613 0
-616 935 0
-616 613 0
617 -837 -2 0
-617 837 0
-617 2 0
618 -617 -41 0
-618 617 0
-618 41 0
619 -936 -616 0
-619 936 0
-619 616 0
620 -757 -751 0
-620 757 0
-620 751 0
621 -620 -741 0
-621 620 0
-621 741 0
622 -937 -619 0
-622 937 0
-622 619 0
623 -29 -28 0
-623 29 0
-623 28 0
624 -623 -718 0
-624 623 0
-624 718 0
625 -938 -622 0
-625 938 0
-625 622 0
626 -870 -710 0
-626 870 0
-626 710 0
627 -626 -4 0
-627 626 0
-627 4 0
628 -939 -625 0
-628 939 0
-628 625 0
629 -50 -725 0
-629 50 0
-629 725 0
630 -629 -2 0
-630 629 0
-630 2 0
631 -940 -628 0
-631 940 0
-631 628 0
632 -842 -20 0
-632 842 0
-632 20 0
633 -632 -759 0
-633 632 0
-633 759 0
634 -941 -631 0
-634 941 0
-634 631 0
635 -713 -13 0
-635 713 0
-635 13 0
636 -635 -772 0
-636 635 0
-636 772 0
637 -942 -634 0
-637 942 0
-637 634 0
638 -46 -721 0
-638 46 0
-638 721 0
639 -638 -13 0
-639 638 0
-639 13 0
640 -943 -637 0
-640 943 0
-640 637 0
641 -231 -49 0
-641 231 0
-641 49 0
642 -944 -640 0
-642 944 0
-642 640 0
643 -32 -704 0
-643 32 0
-643 704 0
644 -643 -25 0
-644 643 0
-644 25 0
645 -945 -642 0
-645 945 0
-645 642 0
646 -33 -7 0
-646 33 0
-646 7 0
647 -646 -14 0
-647 646 0
-647 14 0
648 -946 -645 0
-648 946 0
-648 645 0
649 -45 -743 0
-649 45 0
-649 743 0
650 -649 -39 0
-650 649 0
-650 39 0
651 -947 -648 0
-651 947 0
-651 648 0
652 -44 -31 0
-652 44 0
-652 31 0
653 -652 -697 0
-653 652 0
-653 697 0
654 -948 -651 0
-654 948 0
-654 651 0
655 -18 -696 0
-655 18 0
-655 696 0
656 -655 -33 0
-656 655 0
-656 33 0
657 -949 -654 0
-657 949 0
-657 654 0
658 -31 -18 0
-658 31 0
-658 18 0
659 -658 -42 0
-659 658 0
-659 42 0
660 -950 -657 0
-660 950 0
-660 657 0
661 -50 -1 0
-661 50 0
-661 1 0
662 -661 -718 0
-662 661 0
-662 718 0
663 -951 -660 0
-663 951 0
-663 660 0
664 -779 -697 0
-664 779 0
-664 697 0
665 -664 -741 0
-665 664 0
-665 741 0
666 -952 -663 0
-666 952 0
-666 663 0
667 -743 -11 0
-667 743 0
-667 11 0
668 -667 -695 0
-668 667 0
-668 695 0
669 -953 -666 0
-669 953 0
-669 666 0
670 -318 -743 0
-670 318 0
-670 743 0
671 -954 -669 0
-671 954 0
-671 669 0
672 -28 -740 0
-672 28 0
-672 740 0
673 -672 -30 0
-673 672 0
-673 30 0
674 -955 -671 0
-674 955 0
-674 671 0
675 -9 -3 0
-675 9 0
-675 3 0
676 -675 -704 0
-676 675 0
-676 704 0
677 -956 -674 0
-677 956 0
-677 674 0
678 -731 -701 0
-678 731 0
-678 701 0
679 -678 -707 0
-679 678 0
-679 707 0
680 -957 -677 0
-680 957 0
-680 677 0
681 -716 -13 0
-681 716 0
-681 13 0
682 -681 -772 0
-682 681 0
-682 772 0
683 -958 -680 0
-683 958 0
-683 680 0
684 -810 -7 0
-684 810 0
-684 7 0
685 -684 -4 0
-685 684 0
-685 4 0
686 -959 -683 0
-686 959 0
-686 683 0
687 -751 -713 0
-687 751 0
-687 713 0
688 -687 -817 0
-688 687 0
-688 817 0
689 -960 -686 0
-689 960 0
-689 686 0
690 -381 -4 0
-690 381 0
-690 4 0
691 -961 -689 0
-691 961 0
-691 689 0
692 -49 -779 0
-692 49 0
-692 779 0
693 -692 -812 0
-693 692 0
-693 812 0
694 -962 -691 0
-694 962 0
-694 691 0
-695 -2 0
695 2 0
-696 -1 0
696 1 0
-697 -4 0
697 4 0
-698 -6 0
698 6 0
-699 -54 0
699 54 0
-700 -52 0
700 52 0
-701 -7 0
701 7 0
-702 -57 0
702 57 0
-703 -10 0
703 10 0
-704 -12 0
704 12 0
-705 -60 0
705 60 0
-706 -14 0
706 14 0
-707 -13 0
707 13 0
-708 -63 0
708 63 0
-709 -66 0
709 66 0
-710 -18 0
710 18 0
-711 -69 0
711 69 0
-712 -72 0
712 72 0
-713 -22 0
713 22 0
-714 -75 0
714 75 0
-715 -78 0
715 78 0
-716 -24 0
716 24 0
-717 -81 0
717 81 0
-718 -27 0
718 27 0
-719 -84 0
719 84 0
-720 -87 0
720 87 0
-721 -11 0
721 11 0
-722 -90 0
722 90 0
-723 -21 0
723 21 0
-724 -93 0
724 93 0
-725 -30 0
725 30 0
-726 -96 0
726 96 0
-727 -31 0
727 31 0
-728 -99 0
728 99 0
-729 -32 0
729 32 0
-730 -102 0
730 102 0
-731 -34 0
731 34 0
-732 -25 0
732 25 0
-733 -105 0
733 105 0
-734 -35 0
734 35 0
-735 -108 0
735 108 0
-736 -111 0
736 111 0
-737 -114 0
737 114 0
-738 -38 0
738 38 0
-739 -117 0
739 117 0
-740 -16 0
740 16 0
-741 -39 0
741 39 0
-742 -120 0
742 120 0
-743 -29 0
743 29 0
-744 -123 0
744 123 0
-745 -126 0
745 126 0
-746 -20 0
746 20 0
-747 -129 0
747 129 0
-748 -23 0
748 23 0
-749 -132 0
749 132 0
-750 -135 0
750 135 0
-751 -36 0
751 36 0
-752 -138 0
752 138 0
-753 -141 0
753 141 0
-754 -15 0
754 15 0
-755 -144 0
755 144 0
-756 -147 0
756 147 0
-757 -40 0
757 40 0
-758 -150 0
758 150 0
-759 -8 0
759 8 0
-760 -153 0
760 153 0
-761 -5 0
761 5 0
-762 -156 0
762 156 0
-763 -33 0
763 33 0
-764 -159 0
764 159 0
-765 -162 0
765 162 0
-766 -43 0
766 43 0
-767 -165 0
767 165 0
-768 -168 0
768 168 0
-769 -171 0
769 171 0
-770 -9 0
770 9 0
-771 -173 0
771 173 0
-772 -37 0
772 37 0
-773 -176 0
773 176 0
-774 -179 0
774 179 0
-775 -182 0
775 182 0
-776 -185 0
776 185 0
-777 -45 0
777 45 0
-778 -188 0
778 188 0
-779 -19 0
779 19 0
-780 -191 0
780 191 0
-781 -193 0
781 193 0
-782 -41 0
782 41 0
-783 -196 0
783 196 0
-784 -199 0
784 199 0
-785 -202 0
785 202 0
-786 -205 0
786 205 0
-787 -208 0
787 208 0
-788 -211 0
788 211 0
-789 -214 0
789 214 0
-790 -217 0
790 217 0
-791 -220 0
791 220 0
-792 -223 0
792 223 0
-793 -226 0
793 226 0
-794 -28 0
794 28 0
-795 -229 0
795 229 0
-796 -232 0
796 232 0
-797 -235 0
797 235 0
-798 -238 0
798 238 0
-799 -26 0
799 26 0
-800 -241 0
800 241 0
-801 -44 0
801 44 0
-802 -244 0
802 244 0
-803 -247 0
803 247 0
-804 -250 0
804 250 0
-805 -253 0
805 253 0
-806 -256 0
806 256 0
-807 -259 0
807 259 0
-808 -262 0
808 262 0
-809 -265 0
809 265 0
-810 -47 0
810 47 0
-811 -268 0
811 268 0
-812 -3 0
812 3 0
-813 -271 0
813 271 0
-814 -274 0
814 274 0
-815 -277 0
815 277 0
-816 -280 0
816 280 0
-817 -49 0
817 49 0
-818 -283 0
818 283 0
-819 -50 0
819 50 0
-820 -286 0
820 286 0
-821 -289 0
821 289 0
-822 -17 0
822 17 0
-823 -292 0
823 292 0
-824 -295 0
824 295 0
-825 -298 0
825 298 0
-826 -301 0
826 301 0
-827 -304 0
827 304 0
-828 -307 0
828 307 0
-829 -310 0
829 310 0
-830 -313 0
830 313 0
-831 -316 0
831 316 0
-832 -319 0
832 319 0
-833 -322 0
833 322 0
-834 -325 0
834 325 0
-835 -328 0
835 328 0
-836 -331 0
836 331 0
-837 -42 0
837 42 0
-838 -334 0
838 334 0
-839 -337 0
839 337 0
-840 -340 0
840 340 0
-841 -343 0
841 343 0
-842 -46 0
842 46 0
-843 -346 0
843 346 0
-844 -349 0
844 349 0
-845 -352 0
845 352 0
-846 -355 0
846 355 0
-847 -358 0
847 358 0
-848 -361 0
848 361 0
-849 -364 0
849 364 0
-850 -367 0
850 367 0
-851 -370 0
851 370 0
-852 -373 0
852 373 0
-853 -376 0
853 376 0
-854 -379 0
854 379 0
-855 -382 0
855 382 0
-856 -385 0
856 385 0
-857 -388 0
857 388 0
-858 -391 0
858 391 0
-859 -394 0
859 394 0
-860 -397 0
860 397 0
-861 -400 0
861 400 0
-862 -403 0
862 403 0
-863 -406 0
863 406 0
-864 -409 0
864 409 0
-865 -412 0
865 412 0
-866 -415 0
866 415 0
-867 -418 0
867 418 0
-868 -421 0
868 421 0
-869 -424 0
869 424 0
-870 -48 0
870 48 0
-871 -427 0
871 427 0
-872 -430 0
872 430 0
-873 -433 0
873 433 0
-874 -436 0
874 436 0
-875 -439 0
875 439 0
-876 -442 0
876 442 0
-877 -445 0
877 445 0
-878 -448 0
878 448 0
-879 -451 0
879 451 0
-880 -454 0
880 454 0
-881 -457 0
881 457 0
-882 -460 0
882 460 0
-883 -463 0
883 463 0
-884 -466 0
884 466 0
-885 -469 0
885 469 0
-886 -472 0
886 472 0
-887 -475 0
887 475 0
-888 -478 0
888 478 0
-889 -481 0
889 481 0
-890 -483 0
890 483 0
-891 -486 0
891 486 0
-892 -489 0
892 489 0
-893 -492 0
893 492 0
-894 -495 0
894 495 0
-895 -498 0
895 498 0
-896 -501 0
896 501 0
-897 -504 0
897 504 0
-898 -507 0
898 507 0
-899 -510 0
899 510 0
-900 -513 0
900 513 0
-901 -516 0
901 516 0
-902 -519 0
902 519 0
-903 -522 0
903 522 0
-904 -525 0
904 525 0
-905 -528 0
905 528 0
-906 -531 0
906 531 0
-907 -534 0
907 534 0
-908 -537 0
908 537 0
-909 -540 0
909 540 0
-910 -543 0
910 543 0
-911 -546 0
911 546 0
-912 -549 0
912 549 0
-913 -552 0
913 552 0
-914 -555 0
914 555 0
-915 -558 0
915 558 0
-916 -561 0
916 561 0
-917 -564 0
917 564 0
-918 -566 0
918 566 0
-919 -569 0
919 569 0
-920 -572 0
920 572 0
-921 -574 0
921 574 0
-922 -577 0
922 577 0
-923 -580 0
923 580 0
-924 -583 0
924 583 0
-925 -586 0
925 586 0
-926 -589 0
926 589 0
-927 -592 0
927 592 0
-928 -595 0
928 595 0
-929 -598 0
929 598 0
-930 -601 0
930 601 0
-931 -604 0
931 604 0
-932 -607 0
932 607 0
-933 -610 0
933 610 0
-934 -612 0
934 612 0
-935 -615 0
935 615 0
-936 -618 0
936 618 0
-937 -621 0
937 621 0
-938 -624 0
938 624 0
-939 -627 0
939 627 0
-940 -630 0
940 630 0
-941 -633 0
941 633 0
-942 -636 0
942 636 0
-943 -639 0
943 639 0
-944 -641 0
944 641 0
-945 -644 0
945 644 0
-946 -647 0
946 647 0
-947 -650 0
947 650 0
-948 -653 0
948 653 0
-949 -656 0
949 656 0
-950 -659 0
950 659 0
-951 -662 0
951 662 0
-952 -665 0
952 665 0
-953 -668 0
953 668 0
-954 -670 0
954 670 0
-955 -673 0
955 673 0
-956 -676 0
956 676 0
-957 -679 0
957 679 0
-958 -682 0
958 682 0
-959 -685 0
959 685 0
-960 -688 0
960 688 0
-961 -690 0
961 690 0
-962 -693 0
962 693 0
694 0
